
Gurobi 11.0.0 (linux64) logging started Wed Aug 14 22:52:51 2024

Set parameter LogFile to value "gurobi.log"
Set parameter InfUnbdInfo to value 1
Gurobi Optimizer version 11.0.0 build v11.0.0rc2 (linux64 - "Ubuntu 22.04.4 LTS")

CPU model: AMD EPYC 7V13 64-Core Processor, instruction set [SSE2|AVX|AVX2]
Thread count: 128 physical cores, 128 logical processors, using up to 32 threads

Optimize a model with 62 rows, 163 columns and 149 nonzeros
Model fingerprint: 0xf239f3ca
Model has 108 quadratic constraints
Model has 2 general constraints
Variable types: 43 continuous, 120 integer (0 binary)
Coefficient statistics:
  Matrix range     [1e+00, 2e+05]
  QMatrix range    [1e+00, 2e+05]
  QLMatrix range   [1e+00, 3e+05]
  Objective range  [1e+00, 1e+00]
  Bounds range     [1e+00, 3e+10]
  RHS range        [1e+00, 2e+06]
  QRHS range       [1e+00, 2e+06]
Warning: Model contains large bounds
         Consider reformulating model or setting NumericFocus parameter
         to avoid numerical issues.
Using branch priorities (all 0).
Presolve added 57 rows and 56 columns
Presolve time: 0.01s
Presolved: 391 rows, 239 columns, 2118 nonzeros
Presolved model has 8 SOS constraint(s)
Presolved model has 59 bilinear constraint(s)
Warning: Model contains variables with very large bounds participating
         in product terms.
         Presolve was not able to compute smaller bounds for these variables.
         Consider bounding these variables or reformulating the model.


Solving non-convex MIQCP

Variable types: 126 continuous, 113 integer (24 binary)

Root relaxation: objective 8.289712e+02, 94 iterations, 0.00 seconds (0.00 work units)

    Nodes    |    Current Node    |     Objective Bounds      |     Work
 Expl Unexpl |  Obj  Depth IntInf | Incumbent    BestBd   Gap | It/Node Time

     0     0  828.97123    0   47          -  828.97123      -     -    0s
     0     0 1631.00373    0   71          - 1631.00373      -     -    0s
     0     0 1631.00373    0   71          - 1631.00373      -     -    0s
     0     0 2448.18307    0   81          - 2448.18307      -     -    0s
     0     0 2452.92197    0   94          - 2452.92197      -     -    0s
     0     0 2456.02472    0  113          - 2456.02472      -     -    0s
     0     0 2472.11594    0  101          - 2472.11594      -     -    0s
     0     0 2472.26803    0  123          - 2472.26803      -     -    0s
     0     0 2474.52116    0  119          - 2474.52116      -     -    0s
     0     0 2480.32364    0  120          - 2480.32364      -     -    0s
     0     0 2480.32364    0  121          - 2480.32364      -     -    0s
     0     0 2480.32364    0  116          - 2480.32364      -     -    0s
H    0     0                    405850.85255 2480.32364  99.4%     -    0s
     0     0 2480.32364    0  120 405850.853 2480.32364  99.4%     -    0s
     0     0 3885.99930    0   97 405850.853 3885.99930  99.0%     -    0s
H    0     0                    244176.92628 5637.54212  97.7%     -    0s
H    0     0                    123196.78526 5637.54212  95.4%     -    0s
     0     0 5637.54212    0   65 123196.785 5637.54212  95.4%     -    0s
     0     0 5637.54212    0   63 123196.785 5637.54212  95.4%     -    0s
H    0     0                    122991.78526 5637.54212  95.4%     -    0s
     0     0 5637.54212    0   78 122991.785 5637.54212  95.4%     -    0s
     0     0 80799.2525    0   51 122991.785 80799.2525  34.3%     -    0s
     0     0 80803.0984    0   69 122991.785 80803.0984  34.3%     -    0s
     0     0 80806.1541    0   77 122991.785 80806.1541  34.3%     -    0s
     0     0 80807.7030    0   80 122991.785 80807.7030  34.3%     -    0s
     0     0 80808.2450    0   80 122991.785 80808.2450  34.3%     -    0s
     0     0 80808.3303    0   82 122991.785 80808.3303  34.3%     -    0s
H    0     0                    117501.78526 80832.0226  31.2%     -    0s
     0     0 80832.2774    0   80 117501.785 80832.2774  31.2%     -    0s
     0     0 80868.5805    0   80 117501.785 80868.5805  31.2%     -    0s
H    0     0                    103423.97247 80868.5805  21.8%     -    0s
H    0     0                    97412.788619 80868.5805  17.0%     -    0s
H    0     2                    95567.788619 80868.5805  15.4%     -    0s
     0     2 80868.5805    0   80 95567.7886 80868.5805  15.4%     -    0s
H   51    64                    95497.871213 80868.5805  15.3%  25.0    0s
H   95   114                    95292.871213 80868.5805  15.1%  21.6    0s
*   98   114               6    83351.397400 80868.5805  2.98%  21.4    0s
H  101   114                    83204.794801 80868.5805  2.81%  21.0    0s
H  123   114                    83156.397400 80868.5805  2.75%  19.0    0s
H  241   147                    82880.175683 80868.5805  2.43%  14.6    0s
*  367   191              12    82427.789295 80868.5805  1.89%  12.5    0s
*  375   191              12    82379.391894 80868.5805  1.83%  12.4    0s

Cutting planes:
  Learned: 2
  Gomory: 1
  Implied bound: 11
  MIR: 53
  StrongCG: 1
  Flow cover: 3
  Inf proof: 1
  RLT: 27

Explored 2925 nodes (22939 simplex iterations) in 1.56 seconds (0.18 work units)
Thread count was 32 (of 128 available processors)

Solution count 10: 82379.4 82427.8 82880.2 ... 97412.8

Optimal solution found (tolerance 1.00e-10)
Warning: max constraint violation (7.6333e-04) exceeds tolerance
Warning: max general constraint violation (7.6333e-04) exceeds tolerance
Best objective 8.237939189422e+04, best bound 8.237939189422e+04, gap 0.0000%
